# Node Net
8058   1
2070   1
6571   1
8087   2
720   2
8042   2
3511   3
4051   3
  3   3
 40   4
5041   4
 85   4
7920   5
4230   5
990   5
7381   6
8014   6
7831   6
361   7
8089   7
8017   8
 26   8
 19   9
  2   9
8093  10
8077  10
8056  11
8096  11
5761  12
8011  12
1890  13
 87  13
451  14
4411  14
8088  15
5131  15
4771  16
6661  16
